
  22   10
  10   10   10   10   10   10   10   10   10   10

   0   0   0   0   0   0   0   0   0   0   0   1 2 
   8   0   0   0   0   0   0   0   0   0  10   1 3 
   9   0   0   0   0   0  10   0   0   0   0   1 4 
   1   0   0   0  10   0   0   0   0   0   0   1 5 
   7   0   0   0   0   0   0   0   0   0  10   1 6 
   5  10   0   0   0   0   0   0   0   0   0   1 7 
   9   0   0   0   0   0   0   0   0   0  10   1 8 
   7   0   0   0  10   0   0   0   0   0   0   2 19 9 
   8   0   0   0   0   0   0   0   0  10   0   1 10 
   5   0   0   0   0   0   0   0   0  10   0   1 11 
   5   0  10   0   0   0   0   0   0   0   0   1 12 
   7   0   0   0  10   0   0   0   0   0   0   1 13 
   8  10   0   0   0   0   0   0   0   0   0   1 14 
   2   0   0  10   0   0   0   0   0   0   0   1 15 
   2   0   0   0  10   0   0   0   0   0   0   2 21 16 
   5   0   0   0   0   0  10   0   0   0   0   1 17 
   1   0   0   0   0   0   0  10   0   0   0   1 18 
   9   0   0   0   0   0   0  10   0   0   0   1 20 
   4   0   0  10   0   0   0   0   0   0   0   1 21 
  10   0   0   0   0   0   0   0   0  10   0   1 22
   2   0   0   0   0   0  10   0   0   0   0   1 22
   0   0   0   0   0   0   0   0   0   0   0   0 
